;; preamble
(define-fun iff ((b1 Bool) (b2 Bool)) Bool
  (and (=> b1 b2) (=> b2 b1)))

;; heap
(declare-datatypes () ((DagOfLoc (cons (head Int) (left DagOfLoc) (right DagOfLoc)) (empty))))

;; vars and unint functions
(declare-fun nil () Int)
(declare-fun ret () DagOfLoc)
(declare-fun k () Int)

(declare-fun leftptr (Int) Int)
(declare-fun rightptr (Int) Int)
(declare-fun key (Int) Int)

;; recdefs
(declare-fun htree (DagOfLoc) (Set Int))
(declare-fun tree (DagOfLoc) Bool)
(declare-fun dag (DagOfLoc) Bool)

(assert (forall ((x DagOfLoc))
                (ite (= x empty)
                     (= (htree x) (as emptyset (Set Int)))
                     (ite (and (= (leftptr (head x)) nil) (= (rightptr (head x)) nil))
                          (and (= (left x) empty) (= (right x) empty)
                               (= (htree x) (singleton (head x))))
                     (ite (and (= (leftptr (head x)) nil) (not (= (rightptr (head x)) nil)))
                          (and (= (left x) empty)
                               (not (= (right x) empty))
                               (= (rightptr (head x)) (head (right x)))
                               (= (htree x) (insert (head x) (htree (right x)))))
                     (ite (and (not (= (leftptr (head x)) nil)) (= (rightptr (head x)) nil))
                          (and (= (right x) empty)
                               (not (= (left x) empty))
                               (= (leftptr (head x)) (head (left x)))
                               (= (htree x) (insert (head x) (htree (left x)))))
                          (and (not (= (right x) empty))
                               (= (rightptr (head x)) (head (right x)))
                               (not (= (left x) empty))
                               (= (leftptr (head x)) (head (left x)))
                               (= (htree x) (insert (head x) (union (htree (left x)) (htree (right x))))))))))))

(assert (forall ((x DagOfLoc))
                (iff (tree x)
                     (ite (= x empty)
                          true
                          (and (= (intersection (htree (left x)) (htree (right x))) (as emptyset (Set Int)))
                          (ite (and (= (leftptr (head x)) nil) (= (rightptr (head x)) nil))
                               (and (= (left x) empty) (= (right x) empty))
                          (ite (and (= (leftptr (head x)) nil) (not (= (rightptr (head x)) nil)))
                               (and (= (left x) empty)
                                    (not (= (right x) empty))
                                    (= (rightptr (head x)) (head (right x)))                                    
                                    (tree (right x)))
                          (ite (and (not (= (leftptr (head x)) nil)) (= (rightptr (head x)) nil))
                               (and (= (right x) empty)
                                    (not (= (left x) empty))
                                    (= (leftptr (head x)) (head (left x)))
                                    (tree (left x)))
                               (and (not (= (right x) empty))
                                    (= (rightptr (head x)) (head (right x)))
                                    (tree (right x))
                                    (not (= (left x) empty))
                                    (= (leftptr (head x)) (head (left x)))
                                    (tree (left x)))))))))))

(assert (forall ((x DagOfLoc))
                (iff (dag x)
                     (ite (= x empty)
                          true
                          (ite (and (= (leftptr (head x)) nil) (= (rightptr (head x)) nil))
                               (and (= (left x) empty) (= (right x) empty))
                          (ite (and (= (leftptr (head x)) nil) (not (= (rightptr (head x)) nil)))
                               (and (= (left x) empty)
                                    (not (= (right x) empty))
                                    (= (rightptr (head x)) (head (right x)))
                                    (dag (right x)))
                          (ite (and (not (= (leftptr (head x)) nil)) (= (rightptr (head x)) nil))
                               (and (= (right x) empty)
                                    (not (= (left x) empty))
                                    (= (leftptr (head x)) (head (left x)))
                                    (dag (left x)))
                               (and (not (= (right x) empty))
                                    (= (rightptr (head x)) (head (right x)))
                                    (dag (right x))
                                    (not (= (left x) empty))
                                    (= (leftptr (head x)) (head (left x)))
                                    (dag (left x))))))))))

;; goal
(assert (not 
(forall ((x DagOfLoc)) (=> (tree x)
                           (=> (ite (= x empty) (= ret empty) (= ret (left x)))
                               (dag ret))))
))
(check-sat)
